DIR: 0.2620146314439963, EFF: 0.4392977276858791, INT: 0.010344181452095598, OBJ: 0.288343459418029
original problem has 2517 variables (192 bin, 0 int, 0 impl, 2325 cont) and 2231 constraints
unknown variable <t_x473> in line 2 of solution file </mnt/lscratch/users/dferrario/Adaptive-Cutsel-MILP/TransformedSolutions/a1c1s1__trans__seed__1.sol>
  (further unknown variables are ignored)
1/1 feasible solution given by solution candidate storage, new primal bound 1.150344e+04

presolving:
   (0.0s) running MILP presolver
   (0.1s) MILP presolver (19 rounds): 0 aggregations, 0 fixings, 199 bound changes
   (0.3s) probing cycle finished: starting next cycle
presolving (1 rounds: 1 fast, 1 medium, 1 exhaustive):
 26 deleted vars, 0 deleted constraints, 0 added constraints, 242 tightened bounds, 0 added holes, 0 changed sides, 3 changed coefficients
 5295 implications, 22 cliques
presolved problem has 2491 variables (192 bin, 0 int, 0 impl, 2299 cont) and 2231 constraints
    917 constraints of type <varbound>
   1314 constraints of type <linear>
Presolving Time: 0.31
transformed 1/1 original solutions to the transformed problem space

 time | node  | left  |LP iter|LP it/n|mem/heur|mdpt |vars |cons |rows |cuts |sepa|confs|strbr|  dualbound   | primalbound  |  gap   | compl. 
  0.4s|     1 |     0 |  1225 |     - |    17M |   0 |2491 |2231 |2231 |   0 |  0 |   0 |   0 | 2.364280e+03 | 1.150344e+04 | 386.55%| unknown
Computing relative interior point (time limit: 1e+20, iter limit: 12250) ...
  2.1s|     1 |     0 |  1242 |     - |    20M |   0 |2491 |2231 |2241 |  10 |  1 |   0 |   0 | 2.661081e+03 | 1.150344e+04 | 332.28%| unknown
  2.4s|     1 |     0 |  1284 |     - |    21M |   0 |2491 |2231 |2251 |  20 |  2 |   0 |   0 | 2.783643e+03 | 1.150344e+04 | 313.25%| unknown
  2.7s|     1 |     0 |  1309 |     - |    22M |   0 |2491 |2231 |2261 |  30 |  3 |   0 |   0 | 2.842847e+03 | 1.150344e+04 | 304.65%| unknown
  3.0s|     1 |     0 |  1359 |     - |    23M |   0 |2491 |2231 |2271 |  40 |  4 |   0 |   0 | 2.995738e+03 | 1.150344e+04 | 283.99%| unknown
  3.3s|     1 |     0 |  1414 |     - |    23M |   0 |2491 |2231 |2281 |  50 |  5 |   0 |   0 | 3.113077e+03 | 1.150344e+04 | 269.52%| unknown
  3.5s|     1 |     0 |  1440 |     - |    23M |   0 |2491 |2231 |2291 |  60 |  6 |   0 |   0 | 3.192153e+03 | 1.150344e+04 | 260.37%| unknown
  3.9s|     1 |     0 |  1481 |     - |    25M |   0 |2491 |2231 |2301 |  70 |  7 |   0 |   0 | 3.504700e+03 | 1.150344e+04 | 228.23%| unknown
  4.2s|     1 |     0 |  1514 |     - |    25M |   0 |2491 |2231 |2311 |  80 |  8 |   0 |   0 | 3.578664e+03 | 1.150344e+04 | 221.45%| unknown
  4.5s|     1 |     0 |  1536 |     - |    25M |   0 |2491 |2231 |2321 |  90 |  9 |   0 |   0 | 3.624293e+03 | 1.150344e+04 | 217.40%| unknown
  4.8s|     1 |     0 |  1566 |     - |    26M |   0 |2491 |2231 |2331 | 100 | 10 |   0 |   0 | 3.719709e+03 | 1.150344e+04 | 209.26%| unknown
  5.2s|     1 |     0 |  1601 |     - |    26M |   0 |2491 |2231 |2341 | 110 | 11 |   0 |   0 | 3.861195e+03 | 1.150344e+04 | 197.92%| unknown
  5.7s|     1 |     0 |  1628 |     - |    27M |   0 |2491 |2231 |2351 | 120 | 12 |   0 |   0 | 3.923535e+03 | 1.150344e+04 | 193.19%| unknown
  6.1s|     1 |     0 |  1656 |     - |    27M |   0 |2491 |2231 |2361 | 130 | 13 |   0 |   0 | 4.058921e+03 | 1.150344e+04 | 183.41%| unknown
  6.6s|     1 |     0 |  1712 |     - |    28M |   0 |2491 |2231 |2371 | 140 | 14 |   0 |   0 | 4.198461e+03 | 1.150344e+04 | 173.99%| unknown
 time | node  | left  |LP iter|LP it/n|mem/heur|mdpt |vars |cons |rows |cuts |sepa|confs|strbr|  dualbound   | primalbound  |  gap   | compl. 
  7.1s|     1 |     0 |  1755 |     - |    29M |   0 |2491 |2231 |2381 | 150 | 15 |   0 |   0 | 4.343375e+03 | 1.150344e+04 | 164.85%| unknown
  7.6s|     1 |     0 |  1800 |     - |    30M |   0 |2491 |2231 |2391 | 160 | 16 |   0 |   0 | 4.410695e+03 | 1.150344e+04 | 160.81%| unknown
  8.1s|     1 |     0 |  1824 |     - |    31M |   0 |2491 |2231 |2394 | 170 | 17 |   0 |   0 | 4.459071e+03 | 1.150344e+04 | 157.98%| unknown
  8.6s|     1 |     0 |  1878 |     - |    32M |   0 |2491 |2231 |2404 | 180 | 18 |   0 |   0 | 4.538613e+03 | 1.150344e+04 | 153.46%| unknown
  9.2s|     1 |     0 |  1962 |     - |    33M |   0 |2491 |2231 |2414 | 190 | 19 |   0 |   0 | 4.615053e+03 | 1.150344e+04 | 149.26%| unknown
  9.7s|     1 |     0 |  1997 |     - |    34M |   0 |2491 |2231 |2424 | 200 | 20 |   0 |   0 | 4.671336e+03 | 1.150344e+04 | 146.26%| unknown
 10.3s|     1 |     0 |  2043 |     - |    35M |   0 |2491 |2231 |2434 | 210 | 21 |   0 |   0 | 4.779901e+03 | 1.150344e+04 | 140.66%| unknown
 10.9s|     1 |     0 |  2075 |     - |    36M |   0 |2491 |2231 |2444 | 220 | 22 |   0 |   0 | 4.884147e+03 | 1.150344e+04 | 135.53%| unknown
 11.5s|     1 |     0 |  2164 |     - |    37M |   0 |2491 |2231 |2448 | 230 | 23 |   0 |   0 | 5.051252e+03 | 1.150344e+04 | 127.73%| unknown
 12.1s|     1 |     0 |  2206 |     - |    37M |   0 |2491 |2231 |2458 | 240 | 24 |   0 |   0 | 5.205017e+03 | 1.150344e+04 | 121.01%| unknown
 12.7s|     1 |     0 |  2257 |     - |    39M |   0 |2491 |2231 |2468 | 250 | 25 |   0 |   0 | 5.254899e+03 | 1.150344e+04 | 118.91%| unknown
 13.4s|     1 |     0 |  2318 |     - |    39M |   0 |2491 |2231 |2478 | 260 | 26 |   0 |   0 | 5.299444e+03 | 1.150344e+04 | 117.07%| unknown
 14.0s|     1 |     0 |  2402 |     - |    40M |   0 |2491 |2231 |2488 | 270 | 27 |   0 |   0 | 5.414580e+03 | 1.150344e+04 | 112.45%| unknown
 14.7s|     1 |     0 |  2435 |     - |    41M |   0 |2491 |2231 |2498 | 280 | 28 |   0 |   0 | 5.491235e+03 | 1.150344e+04 | 109.49%| unknown
 15.2s|     1 |     0 |  2498 |     - |    41M |   0 |2491 |2231 |2505 | 290 | 29 |   0 |   0 | 5.590322e+03 | 1.150344e+04 | 105.77%| unknown
 time | node  | left  |LP iter|LP it/n|mem/heur|mdpt |vars |cons |rows |cuts |sepa|confs|strbr|  dualbound   | primalbound  |  gap   | compl. 
 15.4s|     1 |     0 |  2547 |     - |    41M |   0 |2491 |2231 |2515 | 300 | 30 |   0 |   0 | 5.716705e+03 | 1.150344e+04 | 101.23%| unknown
 15.6s|     1 |     0 |  2592 |     - |    41M |   0 |2491 |2231 |2525 | 310 | 31 |   0 |   0 | 5.851059e+03 | 1.150344e+04 |  96.60%| unknown
 15.8s|     1 |     0 |  2678 |     - |    42M |   0 |2491 |2231 |2535 | 320 | 32 |   0 |   0 | 5.972241e+03 | 1.150344e+04 |  92.62%| unknown
 16.0s|     1 |     0 |  2701 |     - |    42M |   0 |2491 |2231 |2545 | 330 | 33 |   0 |   0 | 5.992316e+03 | 1.150344e+04 |  91.97%| unknown
 16.2s|     1 |     0 |  2745 |     - |    42M |   0 |2491 |2231 |2555 | 340 | 34 |   0 |   0 | 6.076128e+03 | 1.150344e+04 |  89.32%| unknown
 16.4s|     1 |     0 |  2883 |     - |    42M |   0 |2491 |2231 |2555 | 350 | 35 |   0 |   0 | 6.376635e+03 | 1.150344e+04 |  80.40%| unknown
 16.6s|     1 |     0 |  2949 |     - |    42M |   0 |2491 |2231 |2565 | 360 | 36 |   0 |   0 | 6.490535e+03 | 1.150344e+04 |  77.23%| unknown
 16.7s|     1 |     0 |  2983 |     - |    42M |   0 |2491 |2231 |2575 | 370 | 37 |   0 |   0 | 6.539099e+03 | 1.150344e+04 |  75.92%| unknown
 16.9s|     1 |     0 |  3033 |     - |    42M |   0 |2491 |2231 |2585 | 380 | 38 |   0 |   0 | 6.598112e+03 | 1.150344e+04 |  74.34%| unknown
 17.0s|     1 |     0 |  3069 |     - |    42M |   0 |2491 |2231 |2595 | 390 | 39 |   0 |   0 | 6.638810e+03 | 1.150344e+04 |  73.28%| unknown
 17.2s|     1 |     0 |  3109 |     - |    42M |   0 |2491 |2231 |2605 | 400 | 40 |   0 |   0 | 6.691905e+03 | 1.150344e+04 |  71.90%| unknown
 17.3s|     1 |     0 |  3152 |     - |    42M |   0 |2491 |2231 |2601 | 410 | 41 |   0 |   0 | 6.752788e+03 | 1.150344e+04 |  70.35%| unknown
 17.5s|     1 |     0 |  3212 |     - |    42M |   0 |2491 |2231 |2611 | 420 | 42 |   0 |   0 | 6.881751e+03 | 1.150344e+04 |  67.16%| unknown
 17.7s|     1 |     0 |  3304 |     - |    42M |   0 |2491 |2231 |2621 | 430 | 43 |   0 |   0 | 7.031927e+03 | 1.150344e+04 |  63.59%| unknown
 17.8s|     1 |     0 |  3345 |     - |    42M |   0 |2491 |2231 |2631 | 440 | 44 |   0 |   0 | 7.078210e+03 | 1.150344e+04 |  62.52%| unknown
 time | node  | left  |LP iter|LP it/n|mem/heur|mdpt |vars |cons |rows |cuts |sepa|confs|strbr|  dualbound   | primalbound  |  gap   | compl. 
 18.0s|     1 |     0 |  3420 |     - |    42M |   0 |2491 |2231 |2641 | 450 | 45 |   0 |   0 | 7.151767e+03 | 1.150344e+04 |  60.85%| unknown
 18.1s|     1 |     0 |  3480 |     - |    42M |   0 |2491 |2231 |2651 | 460 | 46 |   0 |   0 | 7.232288e+03 | 1.150344e+04 |  59.06%| unknown
 18.2s|     1 |     0 |  3538 |     - |    42M |   0 |2491 |2231 |2647 | 470 | 47 |   0 |   0 | 7.299417e+03 | 1.150344e+04 |  57.59%| unknown
 18.4s|     1 |     0 |  3595 |     - |    42M |   0 |2491 |2231 |2657 | 480 | 48 |   0 |   0 | 7.346417e+03 | 1.150344e+04 |  56.59%| unknown
 18.5s|     1 |     0 |  3621 |     - |    42M |   0 |2491 |2231 |2667 | 490 | 49 |   0 |   0 | 7.389986e+03 | 1.150344e+04 |  55.66%| unknown
 18.6s|     1 |     0 |  3654 |     - |    42M |   0 |2491 |2231 |2677 | 500 | 50 |   0 |   0 | 7.422141e+03 | 1.150344e+04 |  54.99%| unknown
 18.6s|     1 |     2 |  3654 |     - |    42M |   0 |2491 |2231 |2677 | 500 | 50 |   0 |   0 | 7.422141e+03 | 1.150344e+04 |  54.99%| unknown

SCIP Status        : solving was interrupted [node limit reached]
Solving Time (sec) : 18.58
Solving Nodes      : 1
Primal Bound       : +1.15034441250000e+04 (1 solutions)
Dual Bound         : +7.42214085337818e+03
Gap                : 54.99 %
